r = [
0,25,33,32,27,28,1,6,19,17,15,22,21,18,19,11,11,22,30,19,10,7,4,6,24,17,0
];
p = [
0,2,30,13,30,14,12,23,2,9,12,9,5,12,6,18,15,11,9,2,19,17,20,15,11,19,0
];
e = [
0,19,6,5,9,10,8,5,7,1,20,13,6,14,10,7,3,10,16,1,7,16,5,20,10,4,0
];
d = [
0,459,366,307,459,418,324,212,430,407,318,425,205,415,333,228,383,261,236,401,408,189,305,374,428,341,486
];
d_bar = [
0,461,393,319,486,431,335,233,432,415,329,433,210,426,338,244,397,271,244,403,425,204,323,388,438,358,486
];
w = [
0,9.5,0.222222222,0.416666667,0.333333333,0.769230769,0.727272727,0.238095238,3.5,0.125,1.818181818,1.625,1.2,1.272727273,2,0.4375,0.214285714,1,2,0.5,0.411764706,1.066666667,0.277777778,1.428571429,1,0.235294118,0
];
